NAME:  exe5
TYPE: ATSP
COMMENT: cf sujet 
DIMENSION:  4
EDGE_WEIGHT_TYPE: EXPLICIT
EDGE_WEIGHT_FORMAT: FULL_MATRIX 
EDGE_WEIGHT_SECTION
 0    2    5   7   
 7    0    8   1       
 2    1    0   9  
 2    2    8   0 
  
   